p cnf 42 279
4 7 11 16 22 29 37 46 56 67 79 92 106 121 0
8 12 17 23 30 38 47 57 68 80 93 107 122 138 0
13 18 24 31 39 48 58 69 81 94 108 123 139 156 0
-4 -8 0
-7 -12 0
-11 -17 0
-16 -23 0
-22 -30 0
-29 -38 0
-37 -47 0
-46 -57 0
-56 -68 0
-67 -80 0
-79 -93 0
-92 -107 0
-106 -122 0
-121 -138 0
-4 -13 0
-7 -18 0
-11 -24 0
-16 -31 0
-22 -39 0
-29 -48 0
-37 -58 0
-46 -69 0
-56 -81 0
-67 -94 0
-79 -108 0
-92 -123 0
-106 -139 0
-121 -156 0
-8 -13 0
-12 -18 0
-17 -24 0
-23 -31 0
-30 -39 0
-38 -48 0
-47 -58 0
-57 -69 0
-68 -81 0
-80 -94 0
-93 -108 0
-107 -123 0
-122 -139 0
-138 -156 0
-4 -23 0
-4 -38 0
-4 -68 0
-4 -107 0
-4 -122 0
-7 -47 0
-7 -80 0
-7 -107 0
-7 -122 0
-11 -38 0
-11 -47 0
-11 -57 0
-11 -107 0
-11 -122 0
-16 -30 0
-16 -93 0
-16 -138 0
-22 -47 0
-22 -80 0
-22 -122 0
-29 -47 0
-29 -57 0
-29 -68 0
-29 -80 0
-29 -107 0
-37 -57 0
-37 -68 0
-37 -80 0
-37 -93 0
-37 -122 0
-46 -80 0
-46 -122 0
-46 -138 0
-56 -93 0
-56 -122 0
-67 -93 0
-79 -107 0
-79 -138 0
-106 -138 0
-4 -31 0
-4 -48 0
-4 -81 0
-4 -123 0
-4 -139 0
-7 -58 0
-7 -94 0
-7 -123 0
-7 -139 0
-11 -48 0
-11 -58 0
-11 -69 0
-11 -123 0
-11 -139 0
-16 -39 0
-16 -108 0
-16 -156 0
-22 -58 0
-22 -94 0
-22 -139 0
-29 -58 0
-29 -69 0
-29 -81 0
-29 -94 0
-29 -123 0
-37 -69 0
-37 -81 0
-37 -94 0
-37 -108 0
-37 -139 0
-46 -94 0
-46 -139 0
-46 -156 0
-56 -108 0
-56 -139 0
-67 -108 0
-79 -123 0
-79 -156 0
-106 -156 0
-8 -16 0
-8 -29 0
-8 -56 0
-8 -92 0
-8 -106 0
-12 -37 0
-12 -67 0
-12 -92 0
-12 -106 0
-17 -29 0
-17 -37 0
-17 -46 0
-17 -92 0
-17 -106 0
-23 -22 0
-23 -79 0
-23 -121 0
-30 -37 0
-30 -67 0
-30 -106 0
-38 -37 0
-38 -46 0
-38 -56 0
-38 -67 0
-38 -92 0
-47 -46 0
-47 -56 0
-47 -67 0
-47 -79 0
-47 -106 0
-57 -67 0
-57 -106 0
-57 -121 0
-68 -79 0
-68 -106 0
-80 -79 0
-93 -92 0
-93 -121 0
-122 -121 0
-8 -31 0
-8 -48 0
-8 -81 0
-8 -123 0
-8 -139 0
-12 -58 0
-12 -94 0
-12 -123 0
-12 -139 0
-17 -48 0
-17 -58 0
-17 -69 0
-17 -123 0
-17 -139 0
-23 -39 0
-23 -108 0
-23 -156 0
-30 -58 0
-30 -94 0
-30 -139 0
-38 -58 0
-38 -69 0
-38 -81 0
-38 -94 0
-38 -123 0
-47 -69 0
-47 -81 0
-47 -94 0
-47 -108 0
-47 -139 0
-57 -94 0
-57 -139 0
-57 -156 0
-68 -108 0
-68 -139 0
-80 -108 0
-93 -123 0
-93 -156 0
-122 -156 0
-13 -16 0
-13 -29 0
-13 -56 0
-13 -92 0
-13 -106 0
-18 -37 0
-18 -67 0
-18 -92 0
-18 -106 0
-24 -29 0
-24 -37 0
-24 -46 0
-24 -92 0
-24 -106 0
-31 -22 0
-31 -79 0
-31 -121 0
-39 -37 0
-39 -67 0
-39 -106 0
-48 -37 0
-48 -46 0
-48 -56 0
-48 -67 0
-48 -92 0
-58 -46 0
-58 -56 0
-58 -67 0
-58 -79 0
-58 -106 0
-69 -67 0
-69 -106 0
-69 -121 0
-81 -79 0
-81 -106 0
-94 -79 0
-108 -92 0
-108 -121 0
-139 -121 0
-13 -23 0
-13 -38 0
-13 -68 0
-13 -107 0
-13 -122 0
-18 -47 0
-18 -80 0
-18 -107 0
-18 -122 0
-24 -38 0
-24 -47 0
-24 -57 0
-24 -107 0
-24 -122 0
-31 -30 0
-31 -93 0
-31 -138 0
-39 -47 0
-39 -80 0
-39 -122 0
-48 -47 0
-48 -57 0
-48 -68 0
-48 -80 0
-48 -107 0
-58 -57 0
-58 -68 0
-58 -80 0
-58 -93 0
-58 -122 0
-69 -80 0
-69 -122 0
-69 -138 0
-81 -93 0
-81 -122 0
-94 -93 0
-108 -107 0
-108 -138 0
-139 -138 0
